c Sudoku solution
p cnf 729 0
123 0
157 0
237 0
292 0
315 0
326 0
349 0
371 0
397 0
429 0
458 0
598 0
665 0
691 0
724 0
775 0
813 0
831 0
859 0
569 0
919 0
139 0
799 0
952 0
255 0
964 0
977 0
983 0
781 0
996 0
894 0
941 0
845 0
866 0
753 0
827 0
551 0
411 0
161 0
221 0
354 0
656 0
388 0
273 0
289 0
268 0
363 0
142 0
246 0
332 0
118 0
214 0
712 0
736 0
617 0
516 0
462 0
748 0
767 0
878 0
882 0
679 0
572 0
525 0
622 0
638 0
928 0
935 0
684 0
493 0
476 0
587 0
485 0
434 0
533 0
447 0
544 0
643 0
174 0
186 0
195 0
